
;this file is automatically generated: Wed Apr 21 11:03:26 CST 2021

;declarations generated

(declare-fun type_5ebff0df_dcbb_41c9_8f2c_1b463e31ed9e_Class37 ( Int) Bool)
(declare-fun type_5ebff0df_dcbb_41c9_8f2c_1b463e31ed9e_Class36 ( Int) Bool)
(declare-fun type_5ebff0df_dcbb_41c9_8f2c_1b463e31ed9e_Class39 ( Int) Bool)
(declare-fun type_5ebff0df_dcbb_41c9_8f2c_1b463e31ed9e_Class38 ( Int) Bool)
(declare-fun type_5ebff0df_dcbb_41c9_8f2c_1b463e31ed9e_Class33 ( Int) Bool)
(declare-fun type_5ebff0df_dcbb_41c9_8f2c_1b463e31ed9e_Class32 ( Int) Bool)
(declare-fun type_5ebff0df_dcbb_41c9_8f2c_1b463e31ed9e_Class35 ( Int) Bool)
(declare-fun type_5ebff0df_dcbb_41c9_8f2c_1b463e31ed9e_Class34 ( Int) Bool)
(declare-fun type_5ebff0df_dcbb_41c9_8f2c_1b463e31ed9e_Class40 ( Int) Bool)
(declare-fun type_5ebff0df_dcbb_41c9_8f2c_1b463e31ed9e_Class42 ( Int) Bool)
(declare-fun type_5ebff0df_dcbb_41c9_8f2c_1b463e31ed9e_Class41 ( Int) Bool)
(declare-fun type_5ebff0df_dcbb_41c9_8f2c_1b463e31ed9e_Class48 ( Int) Bool)
(declare-fun type_5ebff0df_dcbb_41c9_8f2c_1b463e31ed9e_Class47 ( Int) Bool)
(declare-fun type_5ebff0df_dcbb_41c9_8f2c_1b463e31ed9e_Class49 ( Int) Bool)
(declare-fun type_5ebff0df_dcbb_41c9_8f2c_1b463e31ed9e_Class44 ( Int) Bool)
(declare-fun type_5ebff0df_dcbb_41c9_8f2c_1b463e31ed9e_Class43 ( Int) Bool)
(declare-fun type_5ebff0df_dcbb_41c9_8f2c_1b463e31ed9e_Class46 ( Int) Bool)
(declare-fun type_5ebff0df_dcbb_41c9_8f2c_1b463e31ed9e_Class45 ( Int) Bool)
(declare-fun type_5ebff0df_dcbb_41c9_8f2c_1b463e31ed9e_Class51 ( Int) Bool)
(declare-fun type_5ebff0df_dcbb_41c9_8f2c_1b463e31ed9e_Class50 ( Int) Bool)
(declare-fun type_5ebff0df_dcbb_41c9_8f2c_1b463e31ed9e_Class53 ( Int) Bool)
(declare-fun type_5ebff0df_dcbb_41c9_8f2c_1b463e31ed9e_Class52 ( Int) Bool)
(declare-fun oclExcludes ( Int Int) Bool)
(declare-fun type_5ebff0df_dcbb_41c9_8f2c_1b463e31ed9e_Class55 ( Int) Bool)
(declare-fun type_5ebff0df_dcbb_41c9_8f2c_1b463e31ed9e_Class54 ( Int) Bool)
(declare-fun type_5ebff0df_dcbb_41c9_8f2c_1b463e31ed9e_Class56 ( Int) Bool)
(declare-fun Cardinality ( Int) Int)
(declare-fun oclSelect ( Int Bool) Int)
(declare-fun Enum0 ( Int) Int)
(declare-fun Enum1 ( Int) Int)
(declare-fun Enum2 ( Int) Int)
(declare-fun container_ ( Int) Int)
(declare-fun class11_Class11BoolAttr1 ( Int) Bool)
(declare-fun class11_Class11BoolAttr2 ( Int) Bool)
(declare-fun oclIncludes ( Int Int) Bool)
(declare-fun type_5ebff0df_dcbb_41c9_8f2c_1b463e31ed9e_Class19 ( Int) Bool)
(declare-fun type_5ebff0df_dcbb_41c9_8f2c_1b463e31ed9e_Class18 ( Int) Bool)
(declare-fun type_5ebff0df_dcbb_41c9_8f2c_1b463e31ed9e_Class15 ( Int) Bool)
(declare-fun type_5ebff0df_dcbb_41c9_8f2c_1b463e31ed9e_Class14 ( Int) Bool)
(declare-fun type_5ebff0df_dcbb_41c9_8f2c_1b463e31ed9e_Class17 ( Int) Bool)
(declare-fun type_5ebff0df_dcbb_41c9_8f2c_1b463e31ed9e_Class16 ( Int) Bool)
(declare-fun type_5ebff0df_dcbb_41c9_8f2c_1b463e31ed9e_Class11 ( Int) Bool)
(declare-fun type_5ebff0df_dcbb_41c9_8f2c_1b463e31ed9e_Class10 ( Int) Bool)
(declare-fun type_5ebff0df_dcbb_41c9_8f2c_1b463e31ed9e_Class13 ( Int) Bool)
(declare-fun type_5ebff0df_dcbb_41c9_8f2c_1b463e31ed9e_Class12 ( Int) Bool)
(declare-fun type_5ebff0df_dcbb_41c9_8f2c_1b463e31ed9e_Class20 ( Int) Bool)
(declare-fun obj_ef2283a1_0531_4f63_a776_7e44f4dbd973 ( Int) Int)
(declare-fun type_5ebff0df_dcbb_41c9_8f2c_1b463e31ed9e_Class0 ( Int) Bool)
(declare-fun type_5ebff0df_dcbb_41c9_8f2c_1b463e31ed9e_Class29 ( Int) Bool)
(declare-fun type_5ebff0df_dcbb_41c9_8f2c_1b463e31ed9e_Class26 ( Int) Bool)
(declare-fun type_5ebff0df_dcbb_41c9_8f2c_1b463e31ed9e_Class25 ( Int) Bool)
(declare-fun type_5ebff0df_dcbb_41c9_8f2c_1b463e31ed9e_Class28 ( Int) Bool)
(declare-fun type_5ebff0df_dcbb_41c9_8f2c_1b463e31ed9e_Class27 ( Int) Bool)
(declare-fun type_5ebff0df_dcbb_41c9_8f2c_1b463e31ed9e_Class22 ( Int) Bool)
(declare-fun ObjAt ( Int Int) Int)
(declare-fun type_5ebff0df_dcbb_41c9_8f2c_1b463e31ed9e_Class21 ( Int) Bool)
(declare-fun type_5ebff0df_dcbb_41c9_8f2c_1b463e31ed9e_Class24 ( Int) Bool)
(declare-fun type_5ebff0df_dcbb_41c9_8f2c_1b463e31ed9e_Class23 ( Int) Bool)
(declare-fun type_5ebff0df_dcbb_41c9_8f2c_1b463e31ed9e_Class31 ( Int) Bool)
(declare-fun type_5ebff0df_dcbb_41c9_8f2c_1b463e31ed9e_Class30 ( Int) Bool)
(declare-fun type_5ebff0df_dcbb_41c9_8f2c_1b463e31ed9e_Class9 ( Int) Bool)
(declare-fun type_5ebff0df_dcbb_41c9_8f2c_1b463e31ed9e_Class5 ( Int) Bool)
(declare-fun type_5ebff0df_dcbb_41c9_8f2c_1b463e31ed9e_Class6 ( Int) Bool)
(declare-fun type_5ebff0df_dcbb_41c9_8f2c_1b463e31ed9e_Class7 ( Int) Bool)
(declare-fun type_5ebff0df_dcbb_41c9_8f2c_1b463e31ed9e_Class8 ( Int) Bool)
(declare-fun type_5ebff0df_dcbb_41c9_8f2c_1b463e31ed9e_Class1 ( Int) Bool)
(declare-fun type_5ebff0df_dcbb_41c9_8f2c_1b463e31ed9e_Class2 ( Int) Bool)
(declare-fun type_5ebff0df_dcbb_41c9_8f2c_1b463e31ed9e_Class3 ( Int) Bool)
(declare-fun type_5ebff0df_dcbb_41c9_8f2c_1b463e31ed9e_Class4 ( Int) Bool)

;formula(s) generated
(assert (! (or (forall ((v Int)) (=> ( type_5ebff0df_dcbb_41c9_8f2c_1b463e31ed9e_Class11 v )  ( class11_Class11BoolAttr1 ( obj_ef2283a1_0531_4f63_a776_7e44f4dbd973 v )  ) )) (forall ((v Int)) (=> ( type_5ebff0df_dcbb_41c9_8f2c_1b463e31ed9e_Class11 v )  ( class11_Class11BoolAttr2 ( obj_ef2283a1_0531_4f63_a776_7e44f4dbd973 v )  ) ))):named l0))
(assert (! (exists ((o Int)) (and (and (and (and (and (and ( type_5ebff0df_dcbb_41c9_8f2c_1b463e31ed9e_Class0 ( obj_ef2283a1_0531_4f63_a776_7e44f4dbd973 o )  )  ( type_5ebff0df_dcbb_41c9_8f2c_1b463e31ed9e_Class44 ( obj_ef2283a1_0531_4f63_a776_7e44f4dbd973 o )  ) ) ( type_5ebff0df_dcbb_41c9_8f2c_1b463e31ed9e_Class36 ( obj_ef2283a1_0531_4f63_a776_7e44f4dbd973 o )  ) ) ( type_5ebff0df_dcbb_41c9_8f2c_1b463e31ed9e_Class35 ( obj_ef2283a1_0531_4f63_a776_7e44f4dbd973 o )  ) ) ( type_5ebff0df_dcbb_41c9_8f2c_1b463e31ed9e_Class27 ( obj_ef2283a1_0531_4f63_a776_7e44f4dbd973 o )  ) ) ( type_5ebff0df_dcbb_41c9_8f2c_1b463e31ed9e_Class15 ( obj_ef2283a1_0531_4f63_a776_7e44f4dbd973 o )  ) ) ( type_5ebff0df_dcbb_41c9_8f2c_1b463e31ed9e_Class28 ( obj_ef2283a1_0531_4f63_a776_7e44f4dbd973 o )  ) )):named c0))
(assert (! (exists ((o Int)) ( type_5ebff0df_dcbb_41c9_8f2c_1b463e31ed9e_Class1 ( obj_ef2283a1_0531_4f63_a776_7e44f4dbd973 o )  ) ):named c1))
(assert (! (exists ((o Int)) (and (and ( type_5ebff0df_dcbb_41c9_8f2c_1b463e31ed9e_Class10 ( obj_ef2283a1_0531_4f63_a776_7e44f4dbd973 o )  )  ( type_5ebff0df_dcbb_41c9_8f2c_1b463e31ed9e_Class15 ( obj_ef2283a1_0531_4f63_a776_7e44f4dbd973 o )  ) ) ( type_5ebff0df_dcbb_41c9_8f2c_1b463e31ed9e_Class21 ( obj_ef2283a1_0531_4f63_a776_7e44f4dbd973 o )  ) )):named c2))
(assert (! (exists ((o Int)) ( type_5ebff0df_dcbb_41c9_8f2c_1b463e31ed9e_Class11 ( obj_ef2283a1_0531_4f63_a776_7e44f4dbd973 o )  ) ):named c3))
(assert (! (exists ((o Int)) (and (and ( type_5ebff0df_dcbb_41c9_8f2c_1b463e31ed9e_Class12 ( obj_ef2283a1_0531_4f63_a776_7e44f4dbd973 o )  )  ( type_5ebff0df_dcbb_41c9_8f2c_1b463e31ed9e_Class33 ( obj_ef2283a1_0531_4f63_a776_7e44f4dbd973 o )  ) ) ( type_5ebff0df_dcbb_41c9_8f2c_1b463e31ed9e_Class15 ( obj_ef2283a1_0531_4f63_a776_7e44f4dbd973 o )  ) )):named c4))
(assert (! (exists ((o Int)) ( type_5ebff0df_dcbb_41c9_8f2c_1b463e31ed9e_Class13 ( obj_ef2283a1_0531_4f63_a776_7e44f4dbd973 o )  ) ):named c5))
(assert (! (exists ((o Int)) (and (and (and (and (and (and ( type_5ebff0df_dcbb_41c9_8f2c_1b463e31ed9e_Class14 ( obj_ef2283a1_0531_4f63_a776_7e44f4dbd973 o )  )  ( type_5ebff0df_dcbb_41c9_8f2c_1b463e31ed9e_Class36 ( obj_ef2283a1_0531_4f63_a776_7e44f4dbd973 o )  ) ) ( type_5ebff0df_dcbb_41c9_8f2c_1b463e31ed9e_Class35 ( obj_ef2283a1_0531_4f63_a776_7e44f4dbd973 o )  ) ) ( type_5ebff0df_dcbb_41c9_8f2c_1b463e31ed9e_Class27 ( obj_ef2283a1_0531_4f63_a776_7e44f4dbd973 o )  ) ) ( type_5ebff0df_dcbb_41c9_8f2c_1b463e31ed9e_Class9 ( obj_ef2283a1_0531_4f63_a776_7e44f4dbd973 o )  ) ) ( type_5ebff0df_dcbb_41c9_8f2c_1b463e31ed9e_Class15 ( obj_ef2283a1_0531_4f63_a776_7e44f4dbd973 o )  ) ) ( type_5ebff0df_dcbb_41c9_8f2c_1b463e31ed9e_Class28 ( obj_ef2283a1_0531_4f63_a776_7e44f4dbd973 o )  ) )):named c6))
(assert (! (exists ((o Int)) ( type_5ebff0df_dcbb_41c9_8f2c_1b463e31ed9e_Class15 ( obj_ef2283a1_0531_4f63_a776_7e44f4dbd973 o )  ) ):named c7))
(assert (! (exists ((o Int)) ( type_5ebff0df_dcbb_41c9_8f2c_1b463e31ed9e_Class16 ( obj_ef2283a1_0531_4f63_a776_7e44f4dbd973 o )  ) ):named c8))
(assert (! (exists ((o Int)) (and (and (and (and (and (and ( type_5ebff0df_dcbb_41c9_8f2c_1b463e31ed9e_Class17 ( obj_ef2283a1_0531_4f63_a776_7e44f4dbd973 o )  )  ( type_5ebff0df_dcbb_41c9_8f2c_1b463e31ed9e_Class44 ( obj_ef2283a1_0531_4f63_a776_7e44f4dbd973 o )  ) ) ( type_5ebff0df_dcbb_41c9_8f2c_1b463e31ed9e_Class36 ( obj_ef2283a1_0531_4f63_a776_7e44f4dbd973 o )  ) ) ( type_5ebff0df_dcbb_41c9_8f2c_1b463e31ed9e_Class35 ( obj_ef2283a1_0531_4f63_a776_7e44f4dbd973 o )  ) ) ( type_5ebff0df_dcbb_41c9_8f2c_1b463e31ed9e_Class27 ( obj_ef2283a1_0531_4f63_a776_7e44f4dbd973 o )  ) ) ( type_5ebff0df_dcbb_41c9_8f2c_1b463e31ed9e_Class15 ( obj_ef2283a1_0531_4f63_a776_7e44f4dbd973 o )  ) ) ( type_5ebff0df_dcbb_41c9_8f2c_1b463e31ed9e_Class28 ( obj_ef2283a1_0531_4f63_a776_7e44f4dbd973 o )  ) )):named c9))
(assert (! (exists ((o Int)) ( type_5ebff0df_dcbb_41c9_8f2c_1b463e31ed9e_Class18 ( obj_ef2283a1_0531_4f63_a776_7e44f4dbd973 o )  ) ):named c10))
(assert (! (exists ((o Int)) (and (and (and (and (and (and ( type_5ebff0df_dcbb_41c9_8f2c_1b463e31ed9e_Class19 ( obj_ef2283a1_0531_4f63_a776_7e44f4dbd973 o )  )  ( type_5ebff0df_dcbb_41c9_8f2c_1b463e31ed9e_Class36 ( obj_ef2283a1_0531_4f63_a776_7e44f4dbd973 o )  ) ) ( type_5ebff0df_dcbb_41c9_8f2c_1b463e31ed9e_Class35 ( obj_ef2283a1_0531_4f63_a776_7e44f4dbd973 o )  ) ) ( type_5ebff0df_dcbb_41c9_8f2c_1b463e31ed9e_Class27 ( obj_ef2283a1_0531_4f63_a776_7e44f4dbd973 o )  ) ) ( type_5ebff0df_dcbb_41c9_8f2c_1b463e31ed9e_Class9 ( obj_ef2283a1_0531_4f63_a776_7e44f4dbd973 o )  ) ) ( type_5ebff0df_dcbb_41c9_8f2c_1b463e31ed9e_Class15 ( obj_ef2283a1_0531_4f63_a776_7e44f4dbd973 o )  ) ) ( type_5ebff0df_dcbb_41c9_8f2c_1b463e31ed9e_Class28 ( obj_ef2283a1_0531_4f63_a776_7e44f4dbd973 o )  ) )):named c11))
(assert (! (exists ((o Int)) (and (and (and (and (and (and ( type_5ebff0df_dcbb_41c9_8f2c_1b463e31ed9e_Class2 ( obj_ef2283a1_0531_4f63_a776_7e44f4dbd973 o )  )  ( type_5ebff0df_dcbb_41c9_8f2c_1b463e31ed9e_Class36 ( obj_ef2283a1_0531_4f63_a776_7e44f4dbd973 o )  ) ) ( type_5ebff0df_dcbb_41c9_8f2c_1b463e31ed9e_Class35 ( obj_ef2283a1_0531_4f63_a776_7e44f4dbd973 o )  ) ) ( type_5ebff0df_dcbb_41c9_8f2c_1b463e31ed9e_Class27 ( obj_ef2283a1_0531_4f63_a776_7e44f4dbd973 o )  ) ) ( type_5ebff0df_dcbb_41c9_8f2c_1b463e31ed9e_Class15 ( obj_ef2283a1_0531_4f63_a776_7e44f4dbd973 o )  ) ) ( type_5ebff0df_dcbb_41c9_8f2c_1b463e31ed9e_Class28 ( obj_ef2283a1_0531_4f63_a776_7e44f4dbd973 o )  ) ) ( type_5ebff0df_dcbb_41c9_8f2c_1b463e31ed9e_Class54 ( obj_ef2283a1_0531_4f63_a776_7e44f4dbd973 o )  ) )):named c12))
(assert (! (exists ((o Int)) (and ( type_5ebff0df_dcbb_41c9_8f2c_1b463e31ed9e_Class20 ( obj_ef2283a1_0531_4f63_a776_7e44f4dbd973 o )  )  ( type_5ebff0df_dcbb_41c9_8f2c_1b463e31ed9e_Class15 ( obj_ef2283a1_0531_4f63_a776_7e44f4dbd973 o )  ) )):named c13))
(assert (! (exists ((o Int)) (and ( type_5ebff0df_dcbb_41c9_8f2c_1b463e31ed9e_Class21 ( obj_ef2283a1_0531_4f63_a776_7e44f4dbd973 o )  )  ( type_5ebff0df_dcbb_41c9_8f2c_1b463e31ed9e_Class15 ( obj_ef2283a1_0531_4f63_a776_7e44f4dbd973 o )  ) )):named c14))
(assert (! (exists ((o Int)) (and (and (and ( type_5ebff0df_dcbb_41c9_8f2c_1b463e31ed9e_Class22 ( obj_ef2283a1_0531_4f63_a776_7e44f4dbd973 o )  )  ( type_5ebff0df_dcbb_41c9_8f2c_1b463e31ed9e_Class15 ( obj_ef2283a1_0531_4f63_a776_7e44f4dbd973 o )  ) ) ( type_5ebff0df_dcbb_41c9_8f2c_1b463e31ed9e_Class48 ( obj_ef2283a1_0531_4f63_a776_7e44f4dbd973 o )  ) ) ( type_5ebff0df_dcbb_41c9_8f2c_1b463e31ed9e_Class43 ( obj_ef2283a1_0531_4f63_a776_7e44f4dbd973 o )  ) )):named c15))
(assert (! (exists ((o Int)) ( type_5ebff0df_dcbb_41c9_8f2c_1b463e31ed9e_Class23 ( obj_ef2283a1_0531_4f63_a776_7e44f4dbd973 o )  ) ):named c16))
(assert (! (exists ((o Int)) ( type_5ebff0df_dcbb_41c9_8f2c_1b463e31ed9e_Class24 ( obj_ef2283a1_0531_4f63_a776_7e44f4dbd973 o )  ) ):named c17))
(assert (! (exists ((o Int)) (and (and (and ( type_5ebff0df_dcbb_41c9_8f2c_1b463e31ed9e_Class25 ( obj_ef2283a1_0531_4f63_a776_7e44f4dbd973 o )  )  ( type_5ebff0df_dcbb_41c9_8f2c_1b463e31ed9e_Class12 ( obj_ef2283a1_0531_4f63_a776_7e44f4dbd973 o )  ) ) ( type_5ebff0df_dcbb_41c9_8f2c_1b463e31ed9e_Class33 ( obj_ef2283a1_0531_4f63_a776_7e44f4dbd973 o )  ) ) ( type_5ebff0df_dcbb_41c9_8f2c_1b463e31ed9e_Class15 ( obj_ef2283a1_0531_4f63_a776_7e44f4dbd973 o )  ) )):named c18))
(assert (! (exists ((o Int)) ( type_5ebff0df_dcbb_41c9_8f2c_1b463e31ed9e_Class26 ( obj_ef2283a1_0531_4f63_a776_7e44f4dbd973 o )  ) ):named c19))
(assert (! (exists ((o Int)) (and ( type_5ebff0df_dcbb_41c9_8f2c_1b463e31ed9e_Class27 ( obj_ef2283a1_0531_4f63_a776_7e44f4dbd973 o )  )  ( type_5ebff0df_dcbb_41c9_8f2c_1b463e31ed9e_Class15 ( obj_ef2283a1_0531_4f63_a776_7e44f4dbd973 o )  ) )):named c20))
(assert (! (exists ((o Int)) (and (and ( type_5ebff0df_dcbb_41c9_8f2c_1b463e31ed9e_Class28 ( obj_ef2283a1_0531_4f63_a776_7e44f4dbd973 o )  )  ( type_5ebff0df_dcbb_41c9_8f2c_1b463e31ed9e_Class27 ( obj_ef2283a1_0531_4f63_a776_7e44f4dbd973 o )  ) ) ( type_5ebff0df_dcbb_41c9_8f2c_1b463e31ed9e_Class15 ( obj_ef2283a1_0531_4f63_a776_7e44f4dbd973 o )  ) )):named c21))
(assert (! (exists ((o Int)) (and (and (and (and (and ( type_5ebff0df_dcbb_41c9_8f2c_1b463e31ed9e_Class29 ( obj_ef2283a1_0531_4f63_a776_7e44f4dbd973 o )  )  ( type_5ebff0df_dcbb_41c9_8f2c_1b463e31ed9e_Class36 ( obj_ef2283a1_0531_4f63_a776_7e44f4dbd973 o )  ) ) ( type_5ebff0df_dcbb_41c9_8f2c_1b463e31ed9e_Class35 ( obj_ef2283a1_0531_4f63_a776_7e44f4dbd973 o )  ) ) ( type_5ebff0df_dcbb_41c9_8f2c_1b463e31ed9e_Class27 ( obj_ef2283a1_0531_4f63_a776_7e44f4dbd973 o )  ) ) ( type_5ebff0df_dcbb_41c9_8f2c_1b463e31ed9e_Class15 ( obj_ef2283a1_0531_4f63_a776_7e44f4dbd973 o )  ) ) ( type_5ebff0df_dcbb_41c9_8f2c_1b463e31ed9e_Class28 ( obj_ef2283a1_0531_4f63_a776_7e44f4dbd973 o )  ) )):named c22))
(assert (! (exists ((o Int)) ( type_5ebff0df_dcbb_41c9_8f2c_1b463e31ed9e_Class3 ( obj_ef2283a1_0531_4f63_a776_7e44f4dbd973 o )  ) ):named c23))
(assert (! (exists ((o Int)) (and (and ( type_5ebff0df_dcbb_41c9_8f2c_1b463e31ed9e_Class30 ( obj_ef2283a1_0531_4f63_a776_7e44f4dbd973 o )  )  ( type_5ebff0df_dcbb_41c9_8f2c_1b463e31ed9e_Class33 ( obj_ef2283a1_0531_4f63_a776_7e44f4dbd973 o )  ) ) ( type_5ebff0df_dcbb_41c9_8f2c_1b463e31ed9e_Class15 ( obj_ef2283a1_0531_4f63_a776_7e44f4dbd973 o )  ) )):named c24))
(assert (! (exists ((o Int)) (and (and (and (and (and (and ( type_5ebff0df_dcbb_41c9_8f2c_1b463e31ed9e_Class31 ( obj_ef2283a1_0531_4f63_a776_7e44f4dbd973 o )  )  ( type_5ebff0df_dcbb_41c9_8f2c_1b463e31ed9e_Class36 ( obj_ef2283a1_0531_4f63_a776_7e44f4dbd973 o )  ) ) ( type_5ebff0df_dcbb_41c9_8f2c_1b463e31ed9e_Class35 ( obj_ef2283a1_0531_4f63_a776_7e44f4dbd973 o )  ) ) ( type_5ebff0df_dcbb_41c9_8f2c_1b463e31ed9e_Class27 ( obj_ef2283a1_0531_4f63_a776_7e44f4dbd973 o )  ) ) ( type_5ebff0df_dcbb_41c9_8f2c_1b463e31ed9e_Class15 ( obj_ef2283a1_0531_4f63_a776_7e44f4dbd973 o )  ) ) ( type_5ebff0df_dcbb_41c9_8f2c_1b463e31ed9e_Class28 ( obj_ef2283a1_0531_4f63_a776_7e44f4dbd973 o )  ) ) ( type_5ebff0df_dcbb_41c9_8f2c_1b463e31ed9e_Class54 ( obj_ef2283a1_0531_4f63_a776_7e44f4dbd973 o )  ) )):named c25))
(assert (! (exists ((o Int)) ( type_5ebff0df_dcbb_41c9_8f2c_1b463e31ed9e_Class32 ( obj_ef2283a1_0531_4f63_a776_7e44f4dbd973 o )  ) ):named c26))
(assert (! (exists ((o Int)) (and ( type_5ebff0df_dcbb_41c9_8f2c_1b463e31ed9e_Class33 ( obj_ef2283a1_0531_4f63_a776_7e44f4dbd973 o )  )  ( type_5ebff0df_dcbb_41c9_8f2c_1b463e31ed9e_Class15 ( obj_ef2283a1_0531_4f63_a776_7e44f4dbd973 o )  ) )):named c27))
(assert (! (exists ((o Int)) ( type_5ebff0df_dcbb_41c9_8f2c_1b463e31ed9e_Class34 ( obj_ef2283a1_0531_4f63_a776_7e44f4dbd973 o )  ) ):named c28))
(assert (! (exists ((o Int)) (and (and (and (and ( type_5ebff0df_dcbb_41c9_8f2c_1b463e31ed9e_Class35 ( obj_ef2283a1_0531_4f63_a776_7e44f4dbd973 o )  )  ( type_5ebff0df_dcbb_41c9_8f2c_1b463e31ed9e_Class36 ( obj_ef2283a1_0531_4f63_a776_7e44f4dbd973 o )  ) ) ( type_5ebff0df_dcbb_41c9_8f2c_1b463e31ed9e_Class27 ( obj_ef2283a1_0531_4f63_a776_7e44f4dbd973 o )  ) ) ( type_5ebff0df_dcbb_41c9_8f2c_1b463e31ed9e_Class15 ( obj_ef2283a1_0531_4f63_a776_7e44f4dbd973 o )  ) ) ( type_5ebff0df_dcbb_41c9_8f2c_1b463e31ed9e_Class28 ( obj_ef2283a1_0531_4f63_a776_7e44f4dbd973 o )  ) )):named c29))
(assert (! (exists ((o Int)) (and (and (and ( type_5ebff0df_dcbb_41c9_8f2c_1b463e31ed9e_Class36 ( obj_ef2283a1_0531_4f63_a776_7e44f4dbd973 o )  )  ( type_5ebff0df_dcbb_41c9_8f2c_1b463e31ed9e_Class27 ( obj_ef2283a1_0531_4f63_a776_7e44f4dbd973 o )  ) ) ( type_5ebff0df_dcbb_41c9_8f2c_1b463e31ed9e_Class15 ( obj_ef2283a1_0531_4f63_a776_7e44f4dbd973 o )  ) ) ( type_5ebff0df_dcbb_41c9_8f2c_1b463e31ed9e_Class28 ( obj_ef2283a1_0531_4f63_a776_7e44f4dbd973 o )  ) )):named c30))
(assert (! (exists ((o Int)) (and ( type_5ebff0df_dcbb_41c9_8f2c_1b463e31ed9e_Class37 ( obj_ef2283a1_0531_4f63_a776_7e44f4dbd973 o )  )  ( type_5ebff0df_dcbb_41c9_8f2c_1b463e31ed9e_Class15 ( obj_ef2283a1_0531_4f63_a776_7e44f4dbd973 o )  ) )):named c31))
(assert (! (exists ((o Int)) (and (and (and (and ( type_5ebff0df_dcbb_41c9_8f2c_1b463e31ed9e_Class38 ( obj_ef2283a1_0531_4f63_a776_7e44f4dbd973 o )  )  ( type_5ebff0df_dcbb_41c9_8f2c_1b463e31ed9e_Class22 ( obj_ef2283a1_0531_4f63_a776_7e44f4dbd973 o )  ) ) ( type_5ebff0df_dcbb_41c9_8f2c_1b463e31ed9e_Class15 ( obj_ef2283a1_0531_4f63_a776_7e44f4dbd973 o )  ) ) ( type_5ebff0df_dcbb_41c9_8f2c_1b463e31ed9e_Class48 ( obj_ef2283a1_0531_4f63_a776_7e44f4dbd973 o )  ) ) ( type_5ebff0df_dcbb_41c9_8f2c_1b463e31ed9e_Class43 ( obj_ef2283a1_0531_4f63_a776_7e44f4dbd973 o )  ) )):named c32))
(assert (! (exists ((o Int)) ( type_5ebff0df_dcbb_41c9_8f2c_1b463e31ed9e_Class39 ( obj_ef2283a1_0531_4f63_a776_7e44f4dbd973 o )  ) ):named c33))
(assert (! (exists ((o Int)) (and (and (and (and (and (and ( type_5ebff0df_dcbb_41c9_8f2c_1b463e31ed9e_Class4 ( obj_ef2283a1_0531_4f63_a776_7e44f4dbd973 o )  )  ( type_5ebff0df_dcbb_41c9_8f2c_1b463e31ed9e_Class44 ( obj_ef2283a1_0531_4f63_a776_7e44f4dbd973 o )  ) ) ( type_5ebff0df_dcbb_41c9_8f2c_1b463e31ed9e_Class36 ( obj_ef2283a1_0531_4f63_a776_7e44f4dbd973 o )  ) ) ( type_5ebff0df_dcbb_41c9_8f2c_1b463e31ed9e_Class35 ( obj_ef2283a1_0531_4f63_a776_7e44f4dbd973 o )  ) ) ( type_5ebff0df_dcbb_41c9_8f2c_1b463e31ed9e_Class27 ( obj_ef2283a1_0531_4f63_a776_7e44f4dbd973 o )  ) ) ( type_5ebff0df_dcbb_41c9_8f2c_1b463e31ed9e_Class15 ( obj_ef2283a1_0531_4f63_a776_7e44f4dbd973 o )  ) ) ( type_5ebff0df_dcbb_41c9_8f2c_1b463e31ed9e_Class28 ( obj_ef2283a1_0531_4f63_a776_7e44f4dbd973 o )  ) )):named c34))
(assert (! (exists ((o Int)) ( type_5ebff0df_dcbb_41c9_8f2c_1b463e31ed9e_Class40 ( obj_ef2283a1_0531_4f63_a776_7e44f4dbd973 o )  ) ):named c35))
(assert (! (exists ((o Int)) ( type_5ebff0df_dcbb_41c9_8f2c_1b463e31ed9e_Class41 ( obj_ef2283a1_0531_4f63_a776_7e44f4dbd973 o )  ) ):named c36))
(assert (! (exists ((o Int)) ( type_5ebff0df_dcbb_41c9_8f2c_1b463e31ed9e_Class42 ( obj_ef2283a1_0531_4f63_a776_7e44f4dbd973 o )  ) ):named c37))
(assert (! (exists ((o Int)) (and ( type_5ebff0df_dcbb_41c9_8f2c_1b463e31ed9e_Class43 ( obj_ef2283a1_0531_4f63_a776_7e44f4dbd973 o )  )  ( type_5ebff0df_dcbb_41c9_8f2c_1b463e31ed9e_Class15 ( obj_ef2283a1_0531_4f63_a776_7e44f4dbd973 o )  ) )):named c38))
(assert (! (exists ((o Int)) (and (and (and (and (and ( type_5ebff0df_dcbb_41c9_8f2c_1b463e31ed9e_Class44 ( obj_ef2283a1_0531_4f63_a776_7e44f4dbd973 o )  )  ( type_5ebff0df_dcbb_41c9_8f2c_1b463e31ed9e_Class36 ( obj_ef2283a1_0531_4f63_a776_7e44f4dbd973 o )  ) ) ( type_5ebff0df_dcbb_41c9_8f2c_1b463e31ed9e_Class35 ( obj_ef2283a1_0531_4f63_a776_7e44f4dbd973 o )  ) ) ( type_5ebff0df_dcbb_41c9_8f2c_1b463e31ed9e_Class27 ( obj_ef2283a1_0531_4f63_a776_7e44f4dbd973 o )  ) ) ( type_5ebff0df_dcbb_41c9_8f2c_1b463e31ed9e_Class15 ( obj_ef2283a1_0531_4f63_a776_7e44f4dbd973 o )  ) ) ( type_5ebff0df_dcbb_41c9_8f2c_1b463e31ed9e_Class28 ( obj_ef2283a1_0531_4f63_a776_7e44f4dbd973 o )  ) )):named c39))
(assert (! (exists ((o Int)) (and (and (and (and (and (and ( type_5ebff0df_dcbb_41c9_8f2c_1b463e31ed9e_Class45 ( obj_ef2283a1_0531_4f63_a776_7e44f4dbd973 o )  )  ( type_5ebff0df_dcbb_41c9_8f2c_1b463e31ed9e_Class36 ( obj_ef2283a1_0531_4f63_a776_7e44f4dbd973 o )  ) ) ( type_5ebff0df_dcbb_41c9_8f2c_1b463e31ed9e_Class35 ( obj_ef2283a1_0531_4f63_a776_7e44f4dbd973 o )  ) ) ( type_5ebff0df_dcbb_41c9_8f2c_1b463e31ed9e_Class27 ( obj_ef2283a1_0531_4f63_a776_7e44f4dbd973 o )  ) ) ( type_5ebff0df_dcbb_41c9_8f2c_1b463e31ed9e_Class9 ( obj_ef2283a1_0531_4f63_a776_7e44f4dbd973 o )  ) ) ( type_5ebff0df_dcbb_41c9_8f2c_1b463e31ed9e_Class15 ( obj_ef2283a1_0531_4f63_a776_7e44f4dbd973 o )  ) ) ( type_5ebff0df_dcbb_41c9_8f2c_1b463e31ed9e_Class28 ( obj_ef2283a1_0531_4f63_a776_7e44f4dbd973 o )  ) )):named c40))
(assert (! (exists ((o Int)) (and (and ( type_5ebff0df_dcbb_41c9_8f2c_1b463e31ed9e_Class46 ( obj_ef2283a1_0531_4f63_a776_7e44f4dbd973 o )  )  ( type_5ebff0df_dcbb_41c9_8f2c_1b463e31ed9e_Class15 ( obj_ef2283a1_0531_4f63_a776_7e44f4dbd973 o )  ) ) ( type_5ebff0df_dcbb_41c9_8f2c_1b463e31ed9e_Class5 ( obj_ef2283a1_0531_4f63_a776_7e44f4dbd973 o )  ) )):named c41))
(assert (! (exists ((o Int)) ( type_5ebff0df_dcbb_41c9_8f2c_1b463e31ed9e_Class47 ( obj_ef2283a1_0531_4f63_a776_7e44f4dbd973 o )  ) ):named c42))
(assert (! (exists ((o Int)) (and ( type_5ebff0df_dcbb_41c9_8f2c_1b463e31ed9e_Class48 ( obj_ef2283a1_0531_4f63_a776_7e44f4dbd973 o )  )  ( type_5ebff0df_dcbb_41c9_8f2c_1b463e31ed9e_Class15 ( obj_ef2283a1_0531_4f63_a776_7e44f4dbd973 o )  ) )):named c43))
(assert (! (exists ((o Int)) ( type_5ebff0df_dcbb_41c9_8f2c_1b463e31ed9e_Class49 ( obj_ef2283a1_0531_4f63_a776_7e44f4dbd973 o )  ) ):named c44))
(assert (! (exists ((o Int)) (and ( type_5ebff0df_dcbb_41c9_8f2c_1b463e31ed9e_Class5 ( obj_ef2283a1_0531_4f63_a776_7e44f4dbd973 o )  )  ( type_5ebff0df_dcbb_41c9_8f2c_1b463e31ed9e_Class15 ( obj_ef2283a1_0531_4f63_a776_7e44f4dbd973 o )  ) )):named c45))
(assert (! (exists ((o Int)) ( type_5ebff0df_dcbb_41c9_8f2c_1b463e31ed9e_Class50 ( obj_ef2283a1_0531_4f63_a776_7e44f4dbd973 o )  ) ):named c46))
(assert (! (exists ((o Int)) ( type_5ebff0df_dcbb_41c9_8f2c_1b463e31ed9e_Class51 ( obj_ef2283a1_0531_4f63_a776_7e44f4dbd973 o )  ) ):named c47))
(assert (! (exists ((o Int)) ( type_5ebff0df_dcbb_41c9_8f2c_1b463e31ed9e_Class52 ( obj_ef2283a1_0531_4f63_a776_7e44f4dbd973 o )  ) ):named c48))
(assert (! (exists ((o Int)) ( type_5ebff0df_dcbb_41c9_8f2c_1b463e31ed9e_Class53 ( obj_ef2283a1_0531_4f63_a776_7e44f4dbd973 o )  ) ):named c49))
(assert (! (exists ((o Int)) (and (and (and (and (and ( type_5ebff0df_dcbb_41c9_8f2c_1b463e31ed9e_Class54 ( obj_ef2283a1_0531_4f63_a776_7e44f4dbd973 o )  )  ( type_5ebff0df_dcbb_41c9_8f2c_1b463e31ed9e_Class36 ( obj_ef2283a1_0531_4f63_a776_7e44f4dbd973 o )  ) ) ( type_5ebff0df_dcbb_41c9_8f2c_1b463e31ed9e_Class35 ( obj_ef2283a1_0531_4f63_a776_7e44f4dbd973 o )  ) ) ( type_5ebff0df_dcbb_41c9_8f2c_1b463e31ed9e_Class27 ( obj_ef2283a1_0531_4f63_a776_7e44f4dbd973 o )  ) ) ( type_5ebff0df_dcbb_41c9_8f2c_1b463e31ed9e_Class15 ( obj_ef2283a1_0531_4f63_a776_7e44f4dbd973 o )  ) ) ( type_5ebff0df_dcbb_41c9_8f2c_1b463e31ed9e_Class28 ( obj_ef2283a1_0531_4f63_a776_7e44f4dbd973 o )  ) )):named c50))
(assert (! (exists ((o Int)) ( type_5ebff0df_dcbb_41c9_8f2c_1b463e31ed9e_Class55 ( obj_ef2283a1_0531_4f63_a776_7e44f4dbd973 o )  ) ):named c51))
(assert (! (exists ((o Int)) ( type_5ebff0df_dcbb_41c9_8f2c_1b463e31ed9e_Class56 ( obj_ef2283a1_0531_4f63_a776_7e44f4dbd973 o )  ) ):named c52))
(assert (! (exists ((o Int)) (and (and (and (and ( type_5ebff0df_dcbb_41c9_8f2c_1b463e31ed9e_Class6 ( obj_ef2283a1_0531_4f63_a776_7e44f4dbd973 o )  )  ( type_5ebff0df_dcbb_41c9_8f2c_1b463e31ed9e_Class22 ( obj_ef2283a1_0531_4f63_a776_7e44f4dbd973 o )  ) ) ( type_5ebff0df_dcbb_41c9_8f2c_1b463e31ed9e_Class15 ( obj_ef2283a1_0531_4f63_a776_7e44f4dbd973 o )  ) ) ( type_5ebff0df_dcbb_41c9_8f2c_1b463e31ed9e_Class48 ( obj_ef2283a1_0531_4f63_a776_7e44f4dbd973 o )  ) ) ( type_5ebff0df_dcbb_41c9_8f2c_1b463e31ed9e_Class43 ( obj_ef2283a1_0531_4f63_a776_7e44f4dbd973 o )  ) )):named c53))
(assert (! (exists ((o Int)) ( type_5ebff0df_dcbb_41c9_8f2c_1b463e31ed9e_Class7 ( obj_ef2283a1_0531_4f63_a776_7e44f4dbd973 o )  ) ):named c54))
(assert (! (exists ((o Int)) ( type_5ebff0df_dcbb_41c9_8f2c_1b463e31ed9e_Class8 ( obj_ef2283a1_0531_4f63_a776_7e44f4dbd973 o )  ) ):named c55))
(assert (! (exists ((o Int)) (and (and (and (and (and ( type_5ebff0df_dcbb_41c9_8f2c_1b463e31ed9e_Class9 ( obj_ef2283a1_0531_4f63_a776_7e44f4dbd973 o )  )  ( type_5ebff0df_dcbb_41c9_8f2c_1b463e31ed9e_Class36 ( obj_ef2283a1_0531_4f63_a776_7e44f4dbd973 o )  ) ) ( type_5ebff0df_dcbb_41c9_8f2c_1b463e31ed9e_Class35 ( obj_ef2283a1_0531_4f63_a776_7e44f4dbd973 o )  ) ) ( type_5ebff0df_dcbb_41c9_8f2c_1b463e31ed9e_Class27 ( obj_ef2283a1_0531_4f63_a776_7e44f4dbd973 o )  ) ) ( type_5ebff0df_dcbb_41c9_8f2c_1b463e31ed9e_Class15 ( obj_ef2283a1_0531_4f63_a776_7e44f4dbd973 o )  ) ) ( type_5ebff0df_dcbb_41c9_8f2c_1b463e31ed9e_Class28 ( obj_ef2283a1_0531_4f63_a776_7e44f4dbd973 o )  ) )):named c56))

 ;end of formula 